[2026-03-24T16:32:32.115Z] Pipeline "set_vm-3-t2_vm-3-t2_s020_g002" → 2026_03_24_16_32_32_set_vm-3-t2_vm-3-t2_s020_g002_max.sol
Set parameter Username
Set parameter LicenseID to value 2796068
Set parameter LogFile to value "gurobi.log"
Using license file /opt/gurobi/gurobi.lic
Academic license - for non-commercial use only - expires 2027-03-23

Gurobi Optimizer version 13.0.1 build v13.0.1rc0 (linux64 - "Ubuntu 24.04.4 LTS")
Copyright (c) 2026, Gurobi Optimization, LLC

Warning: Duplicate section found (read 'binary') - Is a variable name equal to an LP file format keyword?
Warning: Duplicate section found (read 'binary') - Is a variable name equal to an LP file format keyword?
Warning: Duplicate section found (read 'binary') - Is a variable name equal to an LP file format keyword?
Warning: Duplicate section found (read 'binary') - Is a variable name equal to an LP file format keyword?
Warning: Duplicate section found (read 'binary') - Is a variable name equal to an LP file format keyword?
Warning: Duplicate section found (read 'binary') - Is a variable name equal to an LP file format keyword?
Warning: Duplicate section found (read 'binary') - Is a variable name equal to an LP file format keyword?
Warning: Duplicate section found (read 'binary') - Is a variable name equal to an LP file format keyword?
Warning: Duplicate section found (read 'binary') - Is a variable name equal to an LP file format keyword?
Warning: Duplicate section found (read 'binary') - Is a variable name equal to an LP file format keyword?
Warning: Further warnings of this type will be omitted.
Read LP format model from file /root/bgw/data/uploads/2026_03_24_16_32_32_set_vm-3-t2_vm-3-t2_s020_g002_max.lp
Reading time = 0.01 seconds
: 8483 rows, 537 columns, 25982 nonzeros

Using Gurobi shared library /opt/gurobi1301/linux64/lib/libgurobi.so.13.0.1

CPU model: AMD EPYC-Genoa Processor, instruction set [SSE2|AVX|AVX2|AVX512]
Thread count: 16 physical cores, 16 logical processors, using up to 16 threads

Optimize a model with 8483 rows, 537 columns and 25982 nonzeros (Max)
Model fingerprint: 0x8748bf64
Model has 17 linear objective coefficients
Variable types: 47 continuous, 490 integer (490 binary)
Coefficient statistics:
  Matrix range     [1e+00, 3e+01]
  Objective range  [1e+00, 1e+00]
  Bounds range     [1e+00, 1e+00]
  RHS range        [1e+00, 3e+01]

Found heuristic solution: objective 17.0000000
Presolve removed 333 rows and 84 columns
Presolve time: 0.03s
Presolved: 8150 rows, 453 columns, 24612 nonzeros
Variable types: 0 continuous, 453 integer (447 binary)
Found heuristic solution: objective 24.0000000

Root relaxation: objective 9.000000e+01, 221 iterations, 0.02 seconds (0.02 work units)

    Nodes    |    Current Node    |     Objective Bounds      |     Work
 Expl Unexpl |  Obj  Depth IntInf | Incumbent    BestBd   Gap | It/Node Time

     0     0   90.00000    0   14   24.00000   90.00000   275%     -    0s
H    0     0                      40.0000000   90.00000   125%     -    0s
H    0     0                      47.0000000   90.00000  91.5%     -    0s
     0     0   90.00000    0   19   47.00000   90.00000  91.5%     -    0s
     0     0   90.00000    0   21   47.00000   90.00000  91.5%     -    0s
     0     0   90.00000    0   17   47.00000   90.00000  91.5%     -    0s
     0     0   83.00000    0   20   47.00000   83.00000  76.6%     -    0s
     0     0   83.00000    0   17   47.00000   83.00000  76.6%     -    0s
     0     0   83.00000    0   29   47.00000   83.00000  76.6%     -    0s
     0     0   83.00000    0   22   47.00000   83.00000  76.6%     -    0s
     0     0   83.00000    0   14   47.00000   83.00000  76.6%     -    0s
     0     0   82.46429    0   20   47.00000   82.46429  75.5%     -    0s
     0     0   82.03571    0   12   47.00000   82.03571  74.5%     -    0s
     0     0   82.03571    0   12   47.00000   82.03571  74.5%     -    0s
     0     0   82.00000    0   19   47.00000   82.00000  74.5%     -    0s
     0     0   82.00000    0   19   47.00000   82.00000  74.5%     -    0s
     0     0   82.00000    0   12   47.00000   82.00000  74.5%     -    0s
     0     0   82.00000    0   12   47.00000   82.00000  74.5%     -    0s
     0     0   82.00000    0   12   47.00000   82.00000  74.5%     -    0s
     0     0   82.00000    0   12   47.00000   82.00000  74.5%     -    0s
     0     2   82.00000    0   12   47.00000   82.00000  74.5%     -    0s

Cutting planes:
  Gomory: 1
  Cover: 18
  MIR: 8
  Inf proof: 37
  Zero half: 5
  Mod-K: 4

Explored 2448 nodes (251008 simplex iterations) in 2.61 seconds (4.69 work units)
Thread count was 16 (of 16 available processors)

Solution count 4: 47 40 24 17 

Optimal solution found (tolerance 1.00e-04)
Best objective 4.700000000000e+01, best bound 4.700000000000e+01, gap 0.0000%

Wrote result file '/root/bgw/data/results/2026_03_24_16_32_32_set_vm-3-t2_vm-3-t2_s020_g002_max.sol'

